\ LP format - for model browsing. Use MPS format to capture full model detail.
Maximize
  alpha
Subject To
 R0: x_0_1 - 2 v_0 + 1000 y_0 <= 1000
 R1: x_1_0 - 2 v_1 + 1000 y_1 <= 1000
 R2: y_0 + y_1 >= 1
 R3: x_0_2 - 2 v_0 + 1000 y_2 <= 1000
 R4: x_2_0 - 2 v_2 + 1000 y_3 <= 1000
 R5: y_2 + y_3 >= 1
 R6: x_0_3 - 2 v_0 + 1000 y_4 <= 1000
 R7: x_3_0 - 2 v_3 + 1000 y_5 <= 1000
 R8: y_4 + y_5 >= 1
 R9: x_0_4 - 2 v_0 + 1000 y_6 <= 1000
 R10: x_4_0 - 2 v_4 + 1000 y_7 <= 1000
 R11: y_6 + y_7 >= 1
 R12: x_1_2 - 2 v_1 + 1000 y_8 <= 1000
 R13: x_2_1 - 2 v_2 + 1000 y_9 <= 1000
 R14: y_8 + y_9 >= 1
 R15: x_1_3 - 2 v_1 + 1000 y_10 <= 1000
 R16: x_3_1 - 2 v_3 + 1000 y_11 <= 1000
 R17: y_10 + y_11 >= 1
 R18: x_1_4 - 2 v_1 + 1000 y_12 <= 1000
 R19: x_4_1 - 2 v_4 + 1000 y_13 <= 1000
 R20: y_12 + y_13 >= 1
 R21: x_2_3 - 2 v_2 + 1000 y_14 <= 1000
 R22: x_3_2 - 2 v_3 + 1000 y_15 <= 1000
 R23: y_14 + y_15 >= 1
 R24: x_2_4 - 2 v_2 + 1000 y_16 <= 1000
 R25: x_4_2 - 2 v_4 + 1000 y_17 <= 1000
 R26: y_16 + y_17 >= 1
 R27: x_3_4 - 2 v_3 + 1000 y_18 <= 1000
 R28: x_4_3 - 2 v_4 + 1000 y_19 <= 1000
 R29: y_18 + y_19 >= 1
 R30: x_0_1 + x_0_2 - 3 v_0 + 1000 y_20 <= 1000
 R31: x_1_0 + x_1_2 - 3 v_1 + 1000 y_21 <= 1000
 R32: x_2_0 + x_2_1 - 3 v_2 + 1000 y_22 <= 1000
 R33: y_20 + y_21 + y_22 >= 1
 R34: x_0_1 + x_0_3 - 3 v_0 + 1000 y_23 <= 1000
 R35: x_1_0 + x_1_3 - 3 v_1 + 1000 y_24 <= 1000
 R36: x_3_0 + x_3_1 - 3 v_3 + 1000 y_25 <= 1000
 R37: y_23 + y_24 + y_25 >= 1
 R38: x_0_1 + x_0_4 - 3 v_0 + 1000 y_26 <= 1000
 R39: x_1_0 + x_1_4 - 3 v_1 + 1000 y_27 <= 1000
 R40: x_4_0 + x_4_1 - 3 v_4 + 1000 y_28 <= 1000
 R41: y_26 + y_27 + y_28 >= 1
 R42: x_0_2 + x_0_3 - 3 v_0 + 1000 y_29 <= 1000
 R43: x_2_0 + x_2_3 - 3 v_2 + 1000 y_30 <= 1000
 R44: x_3_0 + x_3_2 - 3 v_3 + 1000 y_31 <= 1000
 R45: y_29 + y_30 + y_31 >= 1
 R46: x_0_2 + x_0_4 - 3 v_0 + 1000 y_32 <= 1000
 R47: x_2_0 + x_2_4 - 3 v_2 + 1000 y_33 <= 1000
 R48: x_4_0 + x_4_2 - 3 v_4 + 1000 y_34 <= 1000
 R49: y_32 + y_33 + y_34 >= 1
 R50: x_0_3 + x_0_4 - 3 v_0 + 1000 y_35 <= 1000
 R51: x_3_0 + x_3_4 - 3 v_3 + 1000 y_36 <= 1000
 R52: x_4_0 + x_4_3 - 3 v_4 + 1000 y_37 <= 1000
 R53: y_35 + y_36 + y_37 >= 1
 R54: x_1_2 + x_1_3 - 3 v_1 + 1000 y_38 <= 1000
 R55: x_2_1 + x_2_3 - 3 v_2 + 1000 y_39 <= 1000
 R56: x_3_1 + x_3_2 - 3 v_3 + 1000 y_40 <= 1000
 R57: y_38 + y_39 + y_40 >= 1
 R58: x_1_2 + x_1_4 - 3 v_1 + 1000 y_41 <= 1000
 R59: x_2_1 + x_2_4 - 3 v_2 + 1000 y_42 <= 1000
 R60: x_4_1 + x_4_2 - 3 v_4 + 1000 y_43 <= 1000
 R61: y_41 + y_42 + y_43 >= 1
 R62: x_1_3 + x_1_4 - 3 v_1 + 1000 y_44 <= 1000
 R63: x_3_1 + x_3_4 - 3 v_3 + 1000 y_45 <= 1000
 R64: x_4_1 + x_4_3 - 3 v_4 + 1000 y_46 <= 1000
 R65: y_44 + y_45 + y_46 >= 1
 R66: x_2_3 + x_2_4 - 3 v_2 + 1000 y_47 <= 1000
 R67: x_3_2 + x_3_4 - 3 v_3 + 1000 y_48 <= 1000
 R68: x_4_2 + x_4_3 - 3 v_4 + 1000 y_49 <= 1000
 R69: y_47 + y_48 + y_49 >= 1
 R70: x_0_1 + x_0_2 + x_0_3 - 4 v_0 + 1000 y_50 <= 1000
 R71: x_1_0 + x_1_2 + x_1_3 - 4 v_1 + 1000 y_51 <= 1000
 R72: x_2_0 + x_2_1 + x_2_3 - 4 v_2 + 1000 y_52 <= 1000
 R73: x_3_0 + x_3_1 + x_3_2 - 4 v_3 + 1000 y_53 <= 1000
 R74: y_50 + y_51 + y_52 + y_53 >= 1
 R75: x_0_1 + x_0_2 + x_0_4 - 4 v_0 + 1000 y_54 <= 1000
 R76: x_1_0 + x_1_2 + x_1_4 - 4 v_1 + 1000 y_55 <= 1000
 R77: x_2_0 + x_2_1 + x_2_4 - 4 v_2 + 1000 y_56 <= 1000
 R78: x_4_0 + x_4_1 + x_4_2 - 4 v_4 + 1000 y_57 <= 1000
 R79: y_54 + y_55 + y_56 + y_57 >= 1
 R80: x_0_1 + x_0_3 + x_0_4 - 4 v_0 + 1000 y_58 <= 1000
 R81: x_1_0 + x_1_3 + x_1_4 - 4 v_1 + 1000 y_59 <= 1000
 R82: x_3_0 + x_3_1 + x_3_4 - 4 v_3 + 1000 y_60 <= 1000
 R83: x_4_0 + x_4_1 + x_4_3 - 4 v_4 + 1000 y_61 <= 1000
 R84: y_58 + y_59 + y_60 + y_61 >= 1
 R85: x_0_2 + x_0_3 + x_0_4 - 4 v_0 + 1000 y_62 <= 1000
 R86: x_2_0 + x_2_3 + x_2_4 - 4 v_2 + 1000 y_63 <= 1000
 R87: x_3_0 + x_3_2 + x_3_4 - 4 v_3 + 1000 y_64 <= 1000
 R88: x_4_0 + x_4_2 + x_4_3 - 4 v_4 + 1000 y_65 <= 1000
 R89: y_62 + y_63 + y_64 + y_65 >= 1
 R90: x_1_2 + x_1_3 + x_1_4 - 4 v_1 + 1000 y_66 <= 1000
 R91: x_2_1 + x_2_3 + x_2_4 - 4 v_2 + 1000 y_67 <= 1000
 R92: x_3_1 + x_3_2 + x_3_4 - 4 v_3 + 1000 y_68 <= 1000
 R93: x_4_1 + x_4_2 + x_4_3 - 4 v_4 + 1000 y_69 <= 1000
 R94: y_66 + y_67 + y_68 + y_69 >= 1
 R95: x_0_1 - x_1_0 = 0
 R96: x_0_2 - x_2_0 = 0
 R97: x_0_3 - x_3_0 = 0
 R98: x_0_4 - x_4_0 = 0
 R99: - x_0_1 + x_1_0 = 0
 R100: x_1_2 - x_2_1 = 0
 R101: x_1_3 - x_3_1 = 0
 R102: x_1_4 - x_4_1 = 0
 R103: - x_0_2 + x_2_0 = 0
 R104: - x_1_2 + x_2_1 = 0
 R105: x_2_3 - x_3_2 = 0
 R106: x_2_4 - x_4_2 = 0
 R107: - x_0_3 + x_3_0 = 0
 R108: - x_1_3 + x_3_1 = 0
 R109: - x_2_3 + x_3_2 = 0
 R110: x_3_4 - x_4_3 = 0
 R111: - x_0_4 + x_4_0 = 0
 R112: - x_1_4 + x_4_1 = 0
 R113: - x_2_4 + x_4_2 = 0
 R114: - x_3_4 + x_4_3 = 0
 R115: x_0_1 = 1
 qc0: x_0_1 + x_0_2 + x_0_3 + x_0_4 + [ - 5 alpha * v_0 ] >= 0
 qc1: x_1_0 + x_1_2 + x_1_3 + x_1_4 + [ - 5 alpha * v_1 ] >= 0
 qc2: x_2_0 + x_2_1 + x_2_3 + x_2_4 + [ - 5 alpha * v_2 ] >= 0
 qc3: x_3_0 + x_3_1 + x_3_2 + x_3_4 + [ - 5 alpha * v_3 ] >= 0
 qc4: x_4_0 + x_4_1 + x_4_2 + x_4_3 + [ - 5 alpha * v_4 ] >= 0
Bounds
 1 <= alpha <= 2
Binaries
 x_0_1 x_0_2 x_0_3 x_0_4 x_1_0 x_1_2 x_1_3 x_1_4 x_2_0 x_2_1 x_2_3 x_2_4
 x_3_0 x_3_1 x_3_2 x_3_4 x_4_0 x_4_1 x_4_2 x_4_3 y_0 y_1 y_2 y_3 y_4 y_5
 y_6 y_7 y_8 y_9 y_10 y_11 y_12 y_13 y_14 y_15 y_16 y_17 y_18 y_19 y_20
 y_21 y_22 y_23 y_24 y_25 y_26 y_27 y_28 y_29 y_30 y_31 y_32 y_33 y_34 y_35
 y_36 y_37 y_38 y_39 y_40 y_41 y_42 y_43 y_44 y_45 y_46 y_47 y_48 y_49 y_50
 y_51 y_52 y_53 y_54 y_55 y_56 y_57 y_58 y_59 y_60 y_61 y_62 y_63 y_64 y_65
 y_66 y_67 y_68 y_69
End
